letting initialStacks = [37, 48, 7, 19, 32, 49, 11, 33, 28, 27, 3, 50, 1, 39, 35, 18, 24, 45, 46, 15, 36, 21, 5, 8, 17, 47, 43, 51, 29, 38, 22, 44, 13, 25, 42, 34, 20, 10, 9, 6, 4, 2, 23, 41, 40, 30, 31, 12, 26, 16, 14]
